cost: 1395.40
Route 1:           0    1  122   51   71   65  136   35  135   34   78  129   79    3   77  116   76   28    0
Route 2:           0    2  115  145   41   23   67   25   55  130   54  134   24   29  121   68   80  150  109   12  138    0
Route 3:           0   18   83  125   45   17  113   86  140   38   14  119   44  141   16   91  100   98   37   92   95   94    0
Route 4:           0   31   10  108   32  131  128   20   30   70  101   69  132   27    0
Route 5:           0   40   21   73   72   74   22  133   75   56   39  139    4  110  149   26  105   53    0
Route 6:           0   52  106    7   82   48  123   19  107   11   62  148   88  127  146    0
Route 7:           0   58  137  144   57   15   43  142   42   87   97  117   13    0
Route 8:           0   89   60  118    5   84   61   85   93   59   99  104   96    6  147  112    0
Route 9:           0  114    8   46  124   47   36  143   49   64   63  126   90   66  103    9  120   81   33  102   50  111    0
